# Solution for model r10_t9_m4_6 Batch Number: 1
# Finished Task: 9 / 9
# Makespan: 551.0, Total Distance: 127.0, Total Time: 5.3551
# R O S F Batch
0 0 16 0.0 0.0 -1
1 1 -1 0.0 0.0 -1
2 2 17 0.0 0.0 -1
3 3 12 0.0 0.0 -1
4 4 -1 0.0 0.0 -1
5 5 11 0.0 0.0 -1
6 6 -1 0.0 0.0 -1
7 7 -1 0.0 0.0 -1
8 8 14 0.0 0.0 -1
9 9 -1 0.0 0.0 -1
10 3 15 443.0 463.0 0
11 5 -1 293.0 313.0 0
12 3 10 401.0 422.0 0
13 8 -1 443.0 477.0 0
14 8 13 416.0 443.0 0
15 3 -1 495.0 517.0 0
16 0 -1 517.0 551.0 0
17 2 18 256.0 281.0 0
18 2 -1 463.0 495.0 0
